SATISFIABLE
(define-fun g () Bool
  false)
(define-fun f () Bool
  true)
(define-fun z () Bool
  true)
(define-fun a () Bool
  true)
(define-fun e () Bool
  false)
(define-fun d () Bool
  true)
(define-fun c () Bool
  true)
(define-fun b () Bool
  true)
